p cnf 225 1
225 0
w 1 0.233447
w 2 1 0
w 2 -1 1
w 3 2 0
w 3 -2 1
w 4 3 0.844741
w 4 -3 0.703527
w 5 4 1
w 5 -4 0
w 6 5 0
w 6 -5 1
w 7 6 0
w 7 -6 1
w 8 7 1
w 8 -7 0
w 9 8 0.758476
w 9 -8 0.416386
w 10 9 0
w 10 -9 1
w 11 10 1
w 11 -10 0
w 12 11 0.981356
w 12 -11 0.579444
w 13 12 0
w 13 -12 1
w 14 13 1
w 14 -13 0
w 15 14 0
w 15 -14 1
w 16 1 0.238724
w 16 -1 0.980983
w 17 16 2 1
w 17 16 -2 0
w 17 -16 2 0
w 17 -16 -2 0
w 18 17 3 0.0762808
w 18 17 -3 0.567118
w 18 -17 3 0.95023
w 18 -17 -3 0.780764
w 19 18 4 0.783176
w 19 18 -4 0.608878
w 19 -18 4 0.628541
w 19 -18 -4 0.199562
w 20 19 5 0.246164
w 20 19 -5 0.43616
w 20 -19 5 0.0951565
w 20 -19 -5 0.141642
w 21 20 6 0
w 21 20 -6 1
w 21 -20 6 0
w 21 -20 -6 1
w 22 21 7 0
w 22 21 -7 1
w 22 -21 7 0
w 22 -21 -7 0
w 23 22 8 1
w 23 22 -8 0
w 23 -22 8 0
w 23 -22 -8 1
w 24 23 9 0.773586
w 24 23 -9 0.504162
w 24 -23 9 0.389256
w 24 -23 -9 0.723816
w 25 24 10 0
w 25 24 -10 1
w 25 -24 10 0
w 25 -24 -10 0
w 26 25 11 1
w 26 25 -11 1
w 26 -25 11 1
w 26 -25 -11 0
w 27 26 12 1
w 27 26 -12 0
w 27 -26 12 0
w 27 -26 -12 1
w 28 27 13 0
w 28 27 -13 0
w 28 -27 13 0
w 28 -27 -13 1
w 29 28 14 0
w 29 28 -14 1
w 29 -28 14 1
w 29 -28 -14 1
w 30 29 15 1
w 30 29 -15 0
w 30 -29 15 1
w 30 -29 -15 0
w 31 16 1
w 31 -16 0
w 32 31 17 0
w 32 31 -17 1
w 32 -31 17 1
w 32 -31 -17 1
w 33 32 18 0.541858
w 33 32 -18 0.645102
w 33 -32 18 0.102671
w 33 -32 -18 0.102088
w 34 33 19 0
w 34 33 -19 0
w 34 -33 19 1
w 34 -33 -19 0
w 35 34 20 0
w 35 34 -20 1
w 35 -34 20 1
w 35 -34 -20 0
w 36 35 21 0
w 36 35 -21 1
w 36 -35 21 0
w 36 -35 -21 1
w 37 36 22 0
w 37 36 -22 0
w 37 -36 22 1
w 37 -36 -22 0
w 38 37 23 0
w 38 37 -23 0
w 38 -37 23 1
w 38 -37 -23 0
w 39 38 24 0
w 39 38 -24 0
w 39 -38 24 1
w 39 -38 -24 0
w 40 39 25 0
w 40 39 -25 0
w 40 -39 25 0
w 40 -39 -25 1
w 41 40 26 0
w 41 40 -26 0
w 41 -40 26 0
w 41 -40 -26 1
w 42 41 27 1
w 42 41 -27 0
w 42 -41 27 1
w 42 -41 -27 0
w 43 42 28 0
w 43 42 -28 1
w 43 -42 28 0
w 43 -42 -28 0
w 44 43 29 1
w 44 43 -29 0
w 44 -43 29 0
w 44 -43 -29 1
w 45 44 30 1
w 45 44 -30 1
w 45 -44 30 0
w 45 -44 -30 1
w 46 31 0.214181
w 46 -31 0.0485162
w 47 46 32 1
w 47 46 -32 1
w 47 -46 32 1
w 47 -46 -32 0
w 48 47 33 0
w 48 47 -33 1
w 48 -47 33 0
w 48 -47 -33 1
w 49 48 34 1
w 49 48 -34 1
w 49 -48 34 0
w 49 -48 -34 1
w 50 49 35 1
w 50 49 -35 1
w 50 -49 35 0
w 50 -49 -35 1
w 51 50 36 1
w 51 50 -36 0
w 51 -50 36 1
w 51 -50 -36 1
w 52 51 37 1
w 52 51 -37 0
w 52 -51 37 0
w 52 -51 -37 1
w 53 52 38 1
w 53 52 -38 1
w 53 -52 38 1
w 53 -52 -38 0
w 54 53 39 1
w 54 53 -39 0
w 54 -53 39 0
w 54 -53 -39 0
w 55 54 40 1
w 55 54 -40 1
w 55 -54 40 0
w 55 -54 -40 0
w 56 55 41 1
w 56 55 -41 1
w 56 -55 41 0
w 56 -55 -41 1
w 57 56 42 1
w 57 56 -42 0
w 57 -56 42 1
w 57 -56 -42 0
w 58 57 43 0
w 58 57 -43 0
w 58 -57 43 1
w 58 -57 -43 0
w 59 58 44 0
w 59 58 -44 1
w 59 -58 44 1
w 59 -58 -44 1
w 60 59 45 0
w 60 59 -45 0
w 60 -59 45 0
w 60 -59 -45 1
w 61 46 1
w 61 -46 0
w 62 61 47 1
w 62 61 -47 0
w 62 -61 47 1
w 62 -61 -47 0
w 63 62 48 0
w 63 62 -48 1
w 63 -62 48 0
w 63 -62 -48 1
w 64 63 49 1
w 64 63 -49 0
w 64 -63 49 1
w 64 -63 -49 1
w 65 64 50 1
w 65 64 -50 1
w 65 -64 50 0
w 65 -64 -50 0
w 66 65 51 0
w 66 65 -51 0
w 66 -65 51 1
w 66 -65 -51 0
w 67 66 52 1
w 67 66 -52 0
w 67 -66 52 1
w 67 -66 -52 0
w 68 67 53 0.893681
w 68 67 -53 0.955143
w 68 -67 53 0.000443126
w 68 -67 -53 0.756712
w 69 68 54 1
w 69 68 -54 0
w 69 -68 54 1
w 69 -68 -54 1
w 70 69 55 1
w 70 69 -55 0
w 70 -69 55 1
w 70 -69 -55 0
w 71 70 56 1
w 71 70 -56 0
w 71 -70 56 1
w 71 -70 -56 1
w 72 71 57 0.295455
w 72 71 -57 0.0254008
w 72 -71 57 0.194046
w 72 -71 -57 0.760646
w 73 72 58 0
w 73 72 -58 1
w 73 -72 58 1
w 73 -72 -58 0
w 74 73 59 0
w 74 73 -59 0
w 74 -73 59 1
w 74 -73 -59 0
w 75 74 60 0
w 75 74 -60 0
w 75 -74 60 1
w 75 -74 -60 1
w 76 61 0
w 76 -61 1
w 77 76 62 0.782025
w 77 76 -62 0.6426
w 77 -76 62 0.000591261
w 77 -76 -62 0.243178
w 78 77 63 0.725372
w 78 77 -63 0.411716
w 78 -77 63 0.262017
w 78 -77 -63 0.655028
w 79 78 64 0
w 79 78 -64 1
w 79 -78 64 1
w 79 -78 -64 1
w 80 79 65 0.871324
w 80 79 -65 0.0852032
w 80 -79 65 0.398955
w 80 -79 -65 0.775481
w 81 80 66 1
w 81 80 -66 0
w 81 -80 66 0
w 81 -80 -66 0
w 82 81 67 0
w 82 81 -67 0
w 82 -81 67 1
w 82 -81 -67 0
w 83 82 68 0
w 83 82 -68 0
w 83 -82 68 1
w 83 -82 -68 1
w 84 83 69 1
w 84 83 -69 1
w 84 -83 69 0
w 84 -83 -69 1
w 85 84 70 1
w 85 84 -70 0
w 85 -84 70 1
w 85 -84 -70 1
w 86 85 71 1
w 86 85 -71 1
w 86 -85 71 0
w 86 -85 -71 0
w 87 86 72 0.420206
w 87 86 -72 0.870303
w 87 -86 72 0.457813
w 87 -86 -72 0.889244
w 88 87 73 0.832778
w 88 87 -73 0.0224964
w 88 -87 73 0.240945
w 88 -87 -73 0.97573
w 89 88 74 0.24926
w 89 88 -74 0.119273
w 89 -88 74 0.0962305
w 89 -88 -74 0.17603
w 90 89 75 0.666403
w 90 89 -75 0.364817
w 90 -89 75 0.512133
w 90 -89 -75 0.943747
w 91 76 0.885151
w 91 -76 0.688909
w 92 91 77 1
w 92 91 -77 0
w 92 -91 77 1
w 92 -91 -77 0
w 93 92 78 1
w 93 92 -78 0
w 93 -92 78 1
w 93 -92 -78 1
w 94 93 79 0
w 94 93 -79 1
w 94 -93 79 1
w 94 -93 -79 1
w 95 94 80 1
w 95 94 -80 1
w 95 -94 80 0
w 95 -94 -80 1
w 96 95 81 0
w 96 95 -81 0
w 96 -95 81 1
w 96 -95 -81 0
w 97 96 82 1
w 97 96 -82 1
w 97 -96 82 1
w 97 -96 -82 0
w 98 97 83 0
w 98 97 -83 0
w 98 -97 83 1
w 98 -97 -83 1
w 99 98 84 0
w 99 98 -84 1
w 99 -98 84 1
w 99 -98 -84 1
w 100 99 85 0
w 100 99 -85 1
w 100 -99 85 1
w 100 -99 -85 1
w 101 100 86 0.790675
w 101 100 -86 0.122041
w 101 -100 86 0.615238
w 101 -100 -86 0.276682
w 102 101 87 0
w 102 101 -87 1
w 102 -101 87 1
w 102 -101 -87 1
w 103 102 88 0.316826
w 103 102 -88 0.100557
w 103 -102 88 0.833445
w 103 -102 -88 0.604391
w 104 103 89 1
w 104 103 -89 1
w 104 -103 89 0
w 104 -103 -89 1
w 105 104 90 0
w 105 104 -90 1
w 105 -104 90 1
w 105 -104 -90 1
w 106 91 0
w 106 -91 1
w 107 106 92 0
w 107 106 -92 1
w 107 -106 92 0
w 107 -106 -92 1
w 108 107 93 0
w 108 107 -93 0
w 108 -107 93 0
w 108 -107 -93 1
w 109 108 94 0.86815
w 109 108 -94 0.134269
w 109 -108 94 0.676753
w 109 -108 -94 0.833721
w 110 109 95 1
w 110 109 -95 0
w 110 -109 95 0
w 110 -109 -95 1
w 111 110 96 1
w 111 110 -96 0
w 111 -110 96 0
w 111 -110 -96 1
w 112 111 97 0
w 112 111 -97 1
w 112 -111 97 0
w 112 -111 -97 1
w 113 112 98 1
w 113 112 -98 1
w 113 -112 98 0
w 113 -112 -98 0
w 114 113 99 0
w 114 113 -99 0
w 114 -113 99 1
w 114 -113 -99 1
w 115 114 100 1
w 115 114 -100 0
w 115 -114 100 1
w 115 -114 -100 1
w 116 115 101 1
w 116 115 -101 0
w 116 -115 101 1
w 116 -115 -101 1
w 117 116 102 1
w 117 116 -102 1
w 117 -116 102 0
w 117 -116 -102 1
w 118 117 103 0.155219
w 118 117 -103 0.742317
w 118 -117 103 0.144703
w 118 -117 -103 0.518403
w 119 118 104 0
w 119 118 -104 0
w 119 -118 104 1
w 119 -118 -104 1
w 120 119 105 0.701074
w 120 119 -105 0.175479
w 120 -119 105 0.154431
w 120 -119 -105 0.889236
w 121 106 0
w 121 -106 1
w 122 121 107 0.0347228
w 122 121 -107 0.462521
w 122 -121 107 0.787516
w 122 -121 -107 0.732141
w 123 122 108 0
w 123 122 -108 0
w 123 -122 108 0
w 123 -122 -108 1
w 124 123 109 0
w 124 123 -109 0
w 124 -123 109 1
w 124 -123 -109 0
w 125 124 110 1
w 125 124 -110 1
w 125 -124 110 0
w 125 -124 -110 1
w 126 125 111 0
w 126 125 -111 0
w 126 -125 111 1
w 126 -125 -111 0
w 127 126 112 1
w 127 126 -112 1
w 127 -126 112 0
w 127 -126 -112 0
w 128 127 113 1
w 128 127 -113 1
w 128 -127 113 1
w 128 -127 -113 0
w 129 128 114 0.756702
w 129 128 -114 0.332694
w 129 -128 114 0.757406
w 129 -128 -114 0.587052
w 130 129 115 1
w 130 129 -115 1
w 130 -129 115 1
w 130 -129 -115 0
w 131 130 116 1
w 131 130 -116 1
w 131 -130 116 0
w 131 -130 -116 0
w 132 131 117 1
w 132 131 -117 0
w 132 -131 117 1
w 132 -131 -117 0
w 133 132 118 1
w 133 132 -118 0
w 133 -132 118 1
w 133 -132 -118 0
w 134 133 119 0.567927
w 134 133 -119 0.925022
w 134 -133 119 0.0199458
w 134 -133 -119 0.972287
w 135 134 120 1
w 135 134 -120 0
w 135 -134 120 1
w 135 -134 -120 1
w 136 121 0
w 136 -121 1
w 137 136 122 0
w 137 136 -122 0
w 137 -136 122 1
w 137 -136 -122 0
w 138 137 123 0
w 138 137 -123 0
w 138 -137 123 1
w 138 -137 -123 1
w 139 138 124 1
w 139 138 -124 1
w 139 -138 124 0
w 139 -138 -124 1
w 140 139 125 0
w 140 139 -125 0
w 140 -139 125 0
w 140 -139 -125 1
w 141 140 126 0.66231
w 141 140 -126 0.602019
w 141 -140 126 0.0644106
w 141 -140 -126 0.577104
w 142 141 127 1
w 142 141 -127 1
w 142 -141 127 0
w 142 -141 -127 1
w 143 142 128 0.374854
w 143 142 -128 0.344502
w 143 -142 128 0.851415
w 143 -142 -128 0.494354
w 144 143 129 0.271108
w 144 143 -129 0.503883
w 144 -143 129 0.104097
w 144 -143 -129 0.222211
w 145 144 130 0
w 145 144 -130 1
w 145 -144 130 0
w 145 -144 -130 1
w 146 145 131 0
w 146 145 -131 0
w 146 -145 131 0
w 146 -145 -131 1
w 147 146 132 0
w 147 146 -132 1
w 147 -146 132 1
w 147 -146 -132 0
w 148 147 133 0
w 148 147 -133 1
w 148 -147 133 1
w 148 -147 -133 1
w 149 148 134 1
w 149 148 -134 0
w 149 -148 134 0
w 149 -148 -134 1
w 150 149 135 1
w 150 149 -135 0
w 150 -149 135 0
w 150 -149 -135 1
w 151 136 0
w 151 -136 1
w 152 151 137 0
w 152 151 -137 0
w 152 -151 137 1
w 152 -151 -137 0
w 153 152 138 0.589015
w 153 152 -138 0.32089
w 153 -152 138 0.874922
w 153 -152 -138 0.271848
w 154 153 139 0
w 154 153 -139 1
w 154 -153 139 1
w 154 -153 -139 1
w 155 154 140 0
w 155 154 -140 0
w 155 -154 140 1
w 155 -154 -140 1
w 156 155 141 1
w 156 155 -141 1
w 156 -155 141 1
w 156 -155 -141 0
w 157 156 142 1
w 157 156 -142 0
w 157 -156 142 1
w 157 -156 -142 0
w 158 157 143 0.48232
w 158 157 -143 0.651294
w 158 -157 143 0.586921
w 158 -157 -143 0.018233
w 159 158 144 1
w 159 158 -144 1
w 159 -158 144 0
w 159 -158 -144 0
w 160 159 145 0.517384
w 160 159 -145 0.873998
w 160 -159 145 0.435797
w 160 -159 -145 0.435374
w 161 160 146 0
w 161 160 -146 0
w 161 -160 146 0
w 161 -160 -146 1
w 162 161 147 0
w 162 161 -147 0
w 162 -161 147 0
w 162 -161 -147 1
w 163 162 148 0
w 163 162 -148 0
w 163 -162 148 1
w 163 -162 -148 1
w 164 163 149 1
w 164 163 -149 0
w 164 -163 149 0
w 164 -163 -149 0
w 165 164 150 0.762878
w 165 164 -150 0.24492
w 165 -164 150 0.363137
w 165 -164 -150 0.693028
w 166 151 0
w 166 -151 1
w 167 166 152 0
w 167 166 -152 1
w 167 -166 152 1
w 167 -166 -152 0
w 168 167 153 1
w 168 167 -153 1
w 168 -167 153 1
w 168 -167 -153 0
w 169 168 154 1
w 169 168 -154 0
w 169 -168 154 0
w 169 -168 -154 0
w 170 169 155 0
w 170 169 -155 1
w 170 -169 155 0
w 170 -169 -155 1
w 171 170 156 0
w 171 170 -156 1
w 171 -170 156 0
w 171 -170 -156 1
w 172 171 157 1
w 172 171 -157 0
w 172 -171 157 1
w 172 -171 -157 1
w 173 172 158 0.923276
w 173 172 -158 0.194953
w 173 -172 158 0.612128
w 173 -172 -158 0.569061
w 174 173 159 1
w 174 173 -159 0
w 174 -173 159 1
w 174 -173 -159 0
w 175 174 160 0
w 175 174 -160 0
w 175 -174 160 1
w 175 -174 -160 0
w 176 175 161 1
w 176 175 -161 0
w 176 -175 161 1
w 176 -175 -161 1
w 177 176 162 1
w 177 176 -162 0
w 177 -176 162 1
w 177 -176 -162 0
w 178 177 163 0
w 178 177 -163 1
w 178 -177 163 1
w 178 -177 -163 1
w 179 178 164 0
w 179 178 -164 1
w 179 -178 164 0
w 179 -178 -164 0
w 180 179 165 0
w 180 179 -165 1
w 180 -179 165 1
w 180 -179 -165 0
w 181 166 1
w 181 -166 0
w 182 181 167 0
w 182 181 -167 1
w 182 -181 167 0
w 182 -181 -167 0
w 183 182 168 1
w 183 182 -168 0
w 183 -182 168 1
w 183 -182 -168 1
w 184 183 169 1
w 184 183 -169 0
w 184 -183 169 1
w 184 -183 -169 0
w 185 184 170 1
w 185 184 -170 1
w 185 -184 170 0
w 185 -184 -170 1
w 186 185 171 1
w 186 185 -171 0
w 186 -185 171 1
w 186 -185 -171 1
w 187 186 172 0
w 187 186 -172 1
w 187 -186 172 1
w 187 -186 -172 1
w 188 187 173 1
w 188 187 -173 0
w 188 -187 173 0
w 188 -187 -173 1
w 189 188 174 0
w 189 188 -174 1
w 189 -188 174 1
w 189 -188 -174 1
w 190 189 175 0
w 190 189 -175 0
w 190 -189 175 1
w 190 -189 -175 1
w 191 190 176 0.409681
w 191 190 -176 0.347759
w 191 -190 176 0.290513
w 191 -190 -176 0.864736
w 192 191 177 0.969258
w 192 191 -177 0.811995
w 192 -191 177 0.029895
w 192 -191 -177 0.201818
w 193 192 178 0
w 193 192 -178 1
w 193 -192 178 1
w 193 -192 -178 1
w 194 193 179 1
w 194 193 -179 0
w 194 -193 179 0
w 194 -193 -179 1
w 195 194 180 0
w 195 194 -180 1
w 195 -194 180 1
w 195 -194 -180 1
w 196 181 1
w 196 -181 0
w 197 196 182 0.781934
w 197 196 -182 0.334214
w 197 -196 182 0.601761
w 197 -196 -182 0.683469
w 198 197 183 1
w 198 197 -183 0
w 198 -197 183 1
w 198 -197 -183 1
w 199 198 184 0.420626
w 199 198 -184 0.913389
w 199 -198 184 0.145059
w 199 -198 -184 0.570599
w 200 199 185 0
w 200 199 -185 0
w 200 -199 185 0
w 200 -199 -185 1
w 201 200 186 0.224438
w 201 200 -186 0.392589
w 201 -200 186 0.348005
w 201 -200 -186 0.299748
w 202 201 187 0.641816
w 202 201 -187 0.125339
w 202 -201 187 0.0357248
w 202 -201 -187 0.141328
w 203 202 188 1
w 203 202 -188 0
w 203 -202 188 1
w 203 -202 -188 0
w 204 203 189 0
w 204 203 -189 0
w 204 -203 189 0
w 204 -203 -189 1
w 205 204 190 0
w 205 204 -190 1
w 205 -204 190 0
w 205 -204 -190 1
w 206 205 191 0
w 206 205 -191 1
w 206 -205 191 1
w 206 -205 -191 0
w 207 206 192 0
w 207 206 -192 1
w 207 -206 192 0
w 207 -206 -192 1
w 208 207 193 0
w 208 207 -193 1
w 208 -207 193 0
w 208 -207 -193 1
w 209 208 194 1
w 209 208 -194 0
w 209 -208 194 0
w 209 -208 -194 1
w 210 209 195 0
w 210 209 -195 1
w 210 -209 195 0
w 210 -209 -195 0
w 211 196 0.0373064
w 211 -196 0.970257
w 212 211 197 0
w 212 211 -197 1
w 212 -211 197 0
w 212 -211 -197 0
w 213 212 198 1
w 213 212 -198 0
w 213 -212 198 0
w 213 -212 -198 1
w 214 213 199 0.750592
w 214 213 -199 0.374251
w 214 -213 199 0.969047
w 214 -213 -199 0.539923
w 215 214 200 1
w 215 214 -200 0
w 215 -214 200 0
w 215 -214 -200 0
w 216 215 201 0
w 216 215 -201 1
w 216 -215 201 0
w 216 -215 -201 0
w 217 216 202 0.770495
w 217 216 -202 0.919074
w 217 -216 202 0.90854
w 217 -216 -202 0.807801
w 218 217 203 0.238639
w 218 217 -203 0.408517
w 218 -217 203 0.67888
w 218 -217 -203 0.947788
w 219 218 204 0.965723
w 219 218 -204 0.8393
w 219 -218 204 0.749261
w 219 -218 -204 0.788146
w 220 219 205 0.574102
w 220 219 -205 0.538738
w 220 -219 205 0.172431
w 220 -219 -205 0.54315
w 221 220 206 1
w 221 220 -206 1
w 221 -220 206 1
w 221 -220 -206 0
w 222 221 207 0
w 222 221 -207 1
w 222 -221 207 0
w 222 -221 -207 0
w 223 222 208 1
w 223 222 -208 1
w 223 -222 208 0
w 223 -222 -208 0
w 224 223 209 0
w 224 223 -209 1
w 224 -223 209 0
w 224 -223 -209 0
w 225 224 210 1
w 225 224 -210 0
w 225 -224 210 1
w 225 -224 -210 1